47501.0
0 0 1 1 1 1 1 1 1 1 1 0 1 0 1 1 1 1 1 1 0 1 1 1 1 1 1 1 1 1 
18 19 21 27 2 12 15 27 22 28 4 28 10 3 28 18 3 10 22 27 18 16 5 24 10 18 27 14 29 2 19 19 4 16 27 6 8 8 24 16 18 9 6 4 8 19 3 21 19 14 24 16 24 16 8 6 25 9 18 7 29 2 7 8 3 25 5 14 28 25 18 12 19 9 23 23 10 23 8 16 10 17 9 25 29 10 6 5 27 7 28 6 25 25 2 3 28 6 17 28 28 15 25 18 4 24 4 24 22 3 19 4 27 12 12 8 28 7 17 8 26 25 17 19 26 16 2 12 26 17 28 24 25 10 23 9 3 3 28 10 12 22 12 25 25 5 24 15 27 25 24 17 23 17 8 28 2 15 3 3 3 27 10 24 5 27 5 4 3 21 5 8 19 14 26 2 24 10 29 10 5 21 2 6 12 8 28 23 17 21 2 21 6 4 7 12 7 21 10 19 